p edge 400 1200
e 1 69
e 1 213
e 1 329
e 2 73
e 2 77
e 2 390
e 3 309
e 3 359
e 3 363
e 4 37
e 4 99
e 4 331
e 5 9
e 5 154
e 5 380
e 6 104
e 6 249
e 6 343
e 7 134
e 7 134
e 7 300
e 8 49
e 8 91
e 8 164
e 9 146
e 9 155
e 9 368
e 10 147
e 10 153
e 10 369
e 11 101
e 11 328
e 11 330
e 12 47
e 12 62
e 12 189
e 13 198
e 13 243
e 13 250
e 14 104
e 14 158
e 14 191
e 15 164
e 15 234
e 15 352
e 16 98
e 16 168
e 16 254
e 17 87
e 17 93
e 17 349
e 18 128
e 18 326
e 18 353
e 19 171
e 19 376
e 19 397
e 20 358
e 20 371
e 20 389
e 21 129
e 21 130
e 21 237
e 22 61
e 22 215
e 22 382
e 23 61
e 23 185
e 23 322
e 24 29
e 24 132
e 24 305
e 25 28
e 25 51
e 25 100
e 26 281
e 26 349
e 26 357
e 27 103
e 27 264
e 27 395
e 28 98
e 28 194
e 28 300
e 29 212
e 29 240
e 29 244
e 30 3
e 30 29
e 30 249
e 31 4
e 31 101
e 31 358
e 32 7
e 32 48
e 32 282
e 33 110
e 33 139
e 33 160
e 34 136
e 34 228
e 34 352
e 35 45
e 35 135
e 35 340
e 36 63
e 36 93
e 36 216
e 37 105
e 37 128
e 37 133
e 38 30
e 38 50
e 38 191
e 39 47
e 39 165
e 39 286
e 40 30
e 40 137
e 40 144
e 41 241
e 41 336
e 41 378
e 42 39
e 42 101
e 42 395
e 43 89
e 43 150
e 43 372
e 44 168
e 44 251
e 44 290
e 45 233
e 45 293
e 45 389
e 46 163
e 46 196
e 46 344
e 47 30
e 47 90
e 47 345
e 48 83
e 48 367
e 48 391
e 49 9
e 49 141
e 49 342
e 50 25
e 50 170
e 50 227
e 51 233
e 51 262
e 51 372
e 52 43
e 52 322
e 52 361
e 53 24
e 53 88
e 53 318
e 54 82
e 54 266
e 54 362
e 55 30
e 55 310
e 55 391
e 56 197
e 56 226
e 56 329
e 57 55
e 57 278
e 57 368
e 58 162
e 58 235
e 58 291
e 59 27
e 59 125
e 59 330
e 60 15
e 60 58
e 60 208
e 61 206
e 61 231
e 61 369
e 62 51
e 62 313
e 62 359
e 63 94
e 63 187
e 63 301
e 64 193
e 64 327
e 64 347
e 65 117
e 65 195
e 65 394
e 66 149
e 66 153
e 66 379
e 67 147
e 67 330
e 67 337
e 68 114
e 68 248
e 68 291
e 69 33
e 69 171
e 69 252
e 70 32
e 70 261
e 70 281
e 71 26
e 71 58
e 71 194
e 72 113
e 72 228
e 72 399
e 73 15
e 73 287
e 73 391
e 74 219
e 74 313
e 74 356
e 75 13
e 75 91
e 75 247
e 76 11
e 76 246
e 76 280
e 77 170
e 77 190
e 77 291
e 78 253
e 78 275
e 78 356
e 79 42
e 79 52
e 79 221
e 80 188
e 80 234
e 80 357
e 81 210
e 81 289
e 81 339
e 82 167
e 82 171
e 82 321
e 83 57
e 83 85
e 83 271
e 84 18
e 84 109
e 84 207
e 85 250
e 85 261
e 85 341
e 86 6
e 86 138
e 86 238
e 87 18
e 87 34
e 87 260
e 88 119
e 88 146
e 88 218
e 89 74
e 89 287
e 89 384
e 90 59
e 90 74
e 90 79
e 91 38
e 91 290
e 91 381
e 92 84
e 92 208
e 92 313
e 93 79
e 93 156
e 93 358
e 94 58
e 94 72
e 94 115
e 95 130
e 95 141
e 95 301
e 96 19
e 96 260
e 96 309
e 97 26
e 97 239
e 97 388
e 98 11
e 98 189
e 98 275
e 99 34
e 99 158
e 99 239
e 100 82
e 100 294
e 100 326
e 101 78
e 101 271
e 101 359
e 102 42
e 102 218
e 102 300
e 103 40
e 103 240
e 103 370
e 104 223
e 104 348
e 104 364
e 105 148
e 105 374
e 105 395
e 106 21
e 106 32
e 106 248
e 107 188
e 107 263
e 107 283
e 108 4
e 108 191
e 108 293
e 109 127
e 109 192
e 109 258
e 110 217
e 110 316
e 110 322
e 111 158
e 111 175
e 111 390
e 112 96
e 112 292
e 112 348
e 113 32
e 113 152
e 113 277
e 114 28
e 114 138
e 114 222
e 115 18
e 115 141
e 115 255
e 116 31
e 116 99
e 116 155
e 117 126
e 117 282
e 117 375
e 118 73
e 118 317
e 118 317
e 119 8
e 119 203
e 119 232
e 120 140
e 120 197
e 120 258
e 121 205
e 121 339
e 121 389
e 122 19
e 122 181
e 122 344
e 123 130
e 123 222
e 123 371
e 124 13
e 124 263
e 124 334
e 125 75
e 125 178
e 125 180
e 126 150
e 126 286
e 126 337
e 127 124
e 127 177
e 127 305
e 128 8
e 128 232
e 128 284
e 129 58
e 129 160
e 129 377
e 130 36
e 130 145
e 130 300
e 131 128
e 131 242
e 131 312
e 132 37
e 132 53
e 132 351
e 133 219
e 133 351
e 133 361
e 134 120
e 134 164
e 134 306
e 135 45
e 135 50
e 135 275
e 136 173
e 136 206
e 136 312
e 137 92
e 137 107
e 137 335
e 138 156
e 138 176
e 138 177
e 139 15
e 139 180
e 139 390
e 140 61
e 140 169
e 140 194
e 141 6
e 141 119
e 141 265
e 142 23
e 142 83
e 142 147
e 143 113
e 143 183
e 143 318
e 144 31
e 144 226
e 144 294
e 145 127
e 145 214
e 145 375
e 146 105
e 146 194
e 146 287
e 147 144
e 147 254
e 147 383
e 148 215
e 148 275
e 148 336
e 149 180
e 149 245
e 149 314
e 150 136
e 150 363
e 150 378
e 151 176
e 151 236
e 151 289
e 152 111
e 152 119
e 152 120
e 153 67
e 153 295
e 153 333
e 154 23
e 154 218
e 154 347
e 155 236
e 155 338
e 155 340
e 156 92
e 156 135
e 156 354
e 157 174
e 157 196
e 157 344
e 158 84
e 158 126
e 158 329
e 159 35
e 159 92
e 159 311
e 160 18
e 160 19
e 160 317
e 161 37
e 161 87
e 161 164
e 162 176
e 162 256
e 162 291
e 163 131
e 163 205
e 163 259
e 164 105
e 164 160
e 164 172
e 165 34
e 165 262
e 165 393
e 166 49
e 166 86
e 166 390
e 167 172
e 167 205
e 167 274
e 168 1
e 168 52
e 168 206
e 169 2
e 169 51
e 169 269
e 170 104
e 170 182
e 170 286
e 171 196
e 171 207
e 171 270
e 172 150
e 172 207
e 172 240
e 173 168
e 173 311
e 173 321
e 174 50
e 174 227
e 174 364
e 175 78
e 175 197
e 175 397
e 176 66
e 176 189
e 176 382
e 177 83
e 177 237
e 177 361
e 178 171
e 178 308
e 178 356
e 179 3
e 179 12
e 179 319
e 180 101
e 180 133
e 180 343
e 181 286
e 181 380
e 181 397
e 182 112
e 182 122
e 182 271
e 183 173
e 183 185
e 183 234
e 184 28
e 184 235
e 184 325
e 185 41
e 185 84
e 185 108
e 186 73
e 186 199
e 186 305
e 187 231
e 187 264
e 187 290
e 188 65
e 188 151
e 188 348
e 189 31
e 189 32
e 189 174
e 190 60
e 190 115
e 190 285
e 191 48
e 191 190
e 191 323
e 192 125
e 192 283
e 192 299
e 193 33
e 193 183
e 193 236
e 194 5
e 194 155
e 194 356
e 195 44
e 195 299
e 195 314
e 196 41
e 196 227
e 196 287
e 197 248
e 197 279
e 197 360
e 198 63
e 198 263
e 198 370
e 199 84
e 199 140
e 199 242
e 200 124
e 200 152
e 200 249
e 201 273
e 201 297
e 201 325
e 202 155
e 202 323
e 202 333
e 203 82
e 203 136
e 203 222
e 204 95
e 204 166
e 204 258
e 205 85
e 205 348
e 205 372
e 206 175
e 206 177
e 206 270
e 207 19
e 207 302
e 207 392
e 208 104
e 208 254
e 208 319
e 209 108
e 209 269
e 209 334
e 210 19
e 210 329
e 210 360
e 211 7
e 211 38
e 211 198
e 212 285
e 212 321
e 212 360
e 213 22
e 213 109
e 213 135
e 214 192
e 214 192
e 214 299
e 215 99
e 215 377
e 215 385
e 216 253
e 216 316
e 216 378
e 217 91
e 217 190
e 217 372
e 218 107
e 218 360
e 218 398
e 219 11
e 219 43
e 219 217
e 220 225
e 220 310
e 220 386
e 221 1
e 221 140
e 221 368
e 222 110
e 222 179
e 222 400
e 223 92
e 223 254
e 223 282
e 224 139
e 224 198
e 224 315
e 225 197
e 225 227
e 225 390
e 226 68
e 226 274
e 226 348
e 227 24
e 227 295
e 227 388
e 228 106
e 228 133
e 228 232
e 229 82
e 229 123
e 229 361
e 230 51
e 230 211
e 230 276
e 231 165
e 231 180
e 231 191
e 232 151
e 232 170
e 232 255
e 233 214
e 233 240
e 233 332
e 234 139
e 234 258
e 234 295
e 235 59
e 235 82
e 235 382
e 236 121
e 236 204
e 236 379
e 237 34
e 237 320
e 237 383
e 238 6
e 238 182
e 238 288
e 239 97
e 239 216
e 239 260
e 240 26
e 240 70
e 240 205
e 241 93
e 241 250
e 241 323
e 242 152
e 242 174
e 242 298
e 243 33
e 243 255
e 243 335
e 244 107
e 244 359
e 244 382
e 245 16
e 245 258
e 245 396
e 246 109
e 246 196
e 246 301
e 247 254
e 247 363
e 247 400
e 248 102
e 248 284
e 248 298
e 249 155
e 249 177
e 249 195
e 250 110
e 250 178
e 250 278
e 251 188
e 251 252
e 251 333
e 252 183
e 252 222
e 252 294
e 253 202
e 253 267
e 253 364
e 254 61
e 254 83
e 254 116
e 255 12
e 255 86
e 255 157
e 256 37
e 256 286
e 256 287
e 257 131
e 257 209
e 257 391
e 258 15
e 258 115
e 258 184
e 259 117
e 259 199
e 259 277
e 260 221
e 260 293
e 260 338
e 261 238
e 261 326
e 261 329
e 262 40
e 262 235
e 262 326
e 263 291
e 263 318
e 263 337
e 264 19
e 264 31
e 264 161
e 265 44
e 265 126
e 265 338
e 266 129
e 266 183
e 266 293
e 267 222
e 267 268
e 267 311
e 268 57
e 268 89
e 268 356
e 269 16
e 269 226
e 269 267
e 270 13
e 270 171
e 270 238
e 271 9
e 271 54
e 271 307
e 272 123
e 272 167
e 272 184
e 273 169
e 273 258
e 273 351
e 274 228
e 274 284
e 274 298
e 275 70
e 275 327
e 275 347
e 276 72
e 276 252
e 276 339
e 277 56
e 277 111
e 277 350
e 278 129
e 278 240
e 278 315
e 279 201
e 279 289
e 279 399
e 280 98
e 280 211
e 280 394
e 281 178
e 281 291
e 281 387
e 282 41
e 282 177
e 282 400
e 283 132
e 283 153
e 283 215
e 284 88
e 284 93
e 284 378
e 285 100
e 285 258
e 285 282
e 286 99
e 286 153
e 286 167
e 287 27
e 287 218
e 287 242
e 288 169
e 288 316
e 288 336
e 289 99
e 289 185
e 289 273
e 290 44
e 290 377
e 290 396
e 291 17
e 291 67
e 291 206
e 292 122
e 292 155
e 292 229
e 293 24
e 293 129
e 293 309
e 294 79
e 294 310
e 294 394
e 295 72
e 295 156
e 295 198
e 296 73
e 296 200
e 296 375
e 297 46
e 297 201
e 297 204
e 298 159
e 298 198
e 298 326
e 299 13
e 299 39
e 299 284
e 300 128
e 300 276
e 300 383
e 301 222
e 301 294
e 301 350
e 302 40
e 302 135
e 302 230
e 303 22
e 303 135
e 303 237
e 304 48
e 304 160
e 304 186
e 305 155
e 305 158
e 305 306
e 306 80
e 306 162
e 306 363
e 307 46
e 307 173
e 307 342
e 308 29
e 308 117
e 308 253
e 309 63
e 309 144
e 309 251
e 310 145
e 310 283
e 310 400
e 311 206
e 311 218
e 311 355
e 312 64
e 312 216
e 312 374
e 313 107
e 313 252
e 313 369
e 314 121
e 314 365
e 314 391
e 315 92
e 315 244
e 315 264
e 316 38
e 316 262
e 316 373
e 317 60
e 317 76
e 317 338
e 318 29
e 318 72
e 318 365
e 319 81
e 319 154
e 319 188
e 320 123
e 320 191
e 320 257
e 321 263
e 321 342
e 321 371
e 322 66
e 322 153
e 322 178
e 323 71
e 323 270
e 323 312
e 324 162
e 324 259
e 324 318
e 325 152
e 325 284
e 325 376
e 326 101
e 326 113
e 326 229
e 327 39
e 327 107
e 327 366
e 328 165
e 328 224
e 328 268
e 329 233
e 329 283
e 329 290
e 330 105
e 330 131
e 330 155
e 331 80
e 331 276
e 331 342
e 332 5
e 332 142
e 332 213
e 333 139
e 333 170
e 333 323
e 334 171
e 334 237
e 334 327
e 335 45
e 335 257
e 335 357
e 336 220
e 336 250
e 336 361
e 337 15
e 337 66
e 337 354
e 338 280
e 338 315
e 338 327
e 339 181
e 339 184
e 339 287
e 340 40
e 340 170
e 340 345
e 341 125
e 341 153
e 341 336
e 342 103
e 342 222
e 342 394
e 343 90
e 343 184
e 343 191
e 344 32
e 344 110
e 344 216
e 345 68
e 345 265
e 345 274
e 346 136
e 346 143
e 346 149
e 347 225
e 347 278
e 347 296
e 348 34
e 348 279
e 348 314
e 349 150
e 349 296
e 349 399
e 350 156
e 350 356
e 350 362
e 351 69
e 351 115
e 351 194
e 352 157
e 352 161
e 352 161
e 353 24
e 353 134
e 353 312
e 354 20
e 354 87
e 354 372
e 355 78
e 355 159
e 355 373
e 356 46
e 356 54
e 356 141
e 357 182
e 357 324
e 357 362
e 358 142
e 358 324
e 358 391
e 359 51
e 359 101
e 359 203
e 360 221
e 360 276
e 360 355
e 361 43
e 361 117
e 361 365
e 362 25
e 362 260
e 362 302
e 363 290
e 363 304
e 363 320
e 364 245
e 364 270
e 364 335
e 365 39
e 365 352
e 365 353
e 366 177
e 366 184
e 366 332
e 367 12
e 367 20
e 367 334
e 368 104
e 368 105
e 368 344
e 369 186
e 369 357
e 369 382
e 370 14
e 370 67
e 370 76
e 371 12
e 371 166
e 371 168
e 372 74
e 372 113
e 372 193
e 373 103
e 373 130
e 373 303
e 374 66
e 374 69
e 374 132
e 375 8
e 375 86
e 375 203
e 376 17
e 376 119
e 376 355
e 377 223
e 377 378
e 377 384
e 378 118
e 378 273
e 378 288
e 379 158
e 379 174
e 379 374
e 380 10
e 380 126
e 380 263
e 381 151
e 381 334
e 381 398
e 382 81
e 382 97
e 382 219
e 383 154
e 383 298
e 383 342
e 384 127
e 384 275
e 384 292
e 385 111
e 385 181
e 385 194
e 386 60
e 386 286
e 386 349
e 387 31
e 387 69
e 387 306
e 388 30
e 388 346
e 388 360
e 389 99
e 389 161
e 389 256
e 390 25
e 390 163
e 390 289
e 391 97
e 391 120
e 391 281
e 392 42
e 392 103
e 392 222
e 393 211
e 393 281
e 393 384
e 394 187
e 394 327
e 394 384
e 395 141
e 395 272
e 395 390
e 396 109
e 396 324
e 396 364
e 397 16
e 397 139
e 397 158
e 398 32
e 398 94
e 398 179
e 399 134
e 399 221
e 399 311
e 400 91
e 400 288
e 400 306
